feasible solution found by trivial heuristic after 8.5 seconds, objective value -3.427360e+08
presolving:
(round 1, fast)       825900 del vars, 825901 del conss, 0 add conss, 838382 chg bounds, 0 chg sides, 0 chg coeffs, 0 upgd conss, 0 impls, 0 clqs
   (16.7s) running MILP presolver
   (16.9s) MILP presolver (3 rounds): 0 aggregations, 0 fixings, 1 bound changes
(round 2, exhaustive) 825900 del vars, 825901 del conss, 0 add conss, 838388 chg bounds, 0 chg sides, 416 chg coeffs, 13553 upgd conss, 0 impls, 0 clqs
(round 3, exhaustive) 825900 del vars, 825901 del conss, 0 add conss, 838388 chg bounds, 0 chg sides, 416 chg coeffs, 26894 upgd conss, 212 impls, 0 clqs
(round 4, medium)     825900 del vars, 839242 del conss, 26682 add conss, 838388 chg bounds, 0 chg sides, 416 chg coeffs, 26894 upgd conss, 212 impls, 26682 clqs
(round 5, exhaustive) 825900 del vars, 879265 del conss, 40023 add conss, 838388 chg bounds, 0 chg sides, 416 chg coeffs, 26894 upgd conss, 212 impls, 26682 clqs
(round 6, exhaustive) 827845 del vars, 881210 del conss, 40023 add conss, 838388 chg bounds, 0 chg sides, 416 chg coeffs, 26894 upgd conss, 212 impls, 22792 clqs
   (18.4s) probing: 51/11608 (0.4%) - 0 fixings, 0 aggregations, 0 implications, 0 bound changes
   (18.4s) probing aborted: 50/50 successive totally useless probings
   (18.4s) symmetry computation started: requiring (bin +, int -, cont +), (fixed: bin -, int +, cont -)
   (18.5s) no symmetry present
presolving (7 rounds: 7 fast, 6 medium, 5 exhaustive):
 827845 deleted vars, 881210 deleted constraints, 40023 added constraints, 838388 tightened bounds, 0 added holes, 0 changed sides, 416 changed coefficients
 212 implications, 22792 cliques
presolved problem has 11609 variables (11608 bin, 0 int, 0 impl, 1 cont) and 11608 constraints
    212 constraints of type <varbound>
  11396 constraints of type <and>
Presolving Time: 13.00
transformed 1/1 original solutions to the transformed problem space

 time | node  | left  |LP iter|LP it/n|mem/heur|mdpt |vars |cons |rows |cuts |sepa|confs|strbr|  dualbound   | primalbound  |  gap   | compl. 
 32.2s|     1 |     0 |   956 |     - |  2505M |   0 |  11k|  11k|  23k|   0 |  0 |   0 |   0 |-3.421799e+08 |-3.427360e+08 |   0.16%| unknown
 54.7s|     1 |     0 |   958 |     - |  2510M |   0 |  11k|  11k|  23k|   1 |  1 |   0 |   0 |-3.421805e+08 |-3.427360e+08 |   0.16%| unknown
 56.8s|     1 |     0 |   960 |     - |  2512M |   0 |  11k|  11k|  23k|   2 |  2 |   0 |   0 |-3.421811e+08 |-3.427360e+08 |   0.16%| unknown
 58.8s|     1 |     0 |   962 |     - |  2515M |   0 |  11k|  11k|  23k|   3 |  3 |   0 |   0 |-3.421817e+08 |-3.427360e+08 |   0.16%| unknown
 60.6s|     1 |     0 |   964 |     - |  2517M |   0 |  11k|  11k|  23k|   4 |  4 |   0 |   0 |-3.421819e+08 |-3.427360e+08 |   0.16%| unknown
 62.8s|     1 |     0 |   966 |     - |  2520M |   0 |  11k|  11k|  23k|   5 |  5 |   0 |   0 |-3.421820e+08 |-3.427360e+08 |   0.16%| unknown
 64.6s|     1 |     0 |   968 |     - |  2522M |   0 |  11k|  11k|  23k|   6 |  6 |   0 |   0 |-3.421822e+08 |-3.427360e+08 |   0.16%| unknown
 66.6s|     1 |     0 |   970 |     - |  2525M |   0 |  11k|  11k|  23k|   7 |  7 |   0 |   0 |-3.421824e+08 |-3.427360e+08 |   0.16%| unknown
 68.6s|     1 |     0 |   972 |     - |  2528M |   0 |  11k|  11k|  23k|   8 |  8 |   0 |   0 |-3.421829e+08 |-3.427360e+08 |   0.16%| unknown
 70.4s|     1 |     0 |   974 |     - |  2531M |   0 |  11k|  11k|  23k|   9 |  9 |   0 |   0 |-3.421836e+08 |-3.427360e+08 |   0.16%| unknown
 72.7s|     1 |     0 |   976 |     - |  2533M |   0 |  11k|  11k|  23k|  10 | 10 |   0 |   0 |-3.421846e+08 |-3.427360e+08 |   0.16%| unknown
 75.0s|     1 |     0 |  1056 |     - |  2536M |   0 |  11k|  11k|  23k|  45 | 12 |   0 |   0 |-3.421936e+08 |-3.427360e+08 |   0.16%| unknown
 77.3s|     1 |     0 |  1087 |     - |  2538M |   0 |  11k|  11k|  23k|  64 | 13 |   0 |   0 |-3.421962e+08 |-3.427360e+08 |   0.16%| unknown
 79.1s|     1 |     0 |  1120 |     - |  2541M |   0 |  11k|  11k|  23k|  83 | 14 |   0 |   0 |-3.421986e+08 |-3.427360e+08 |   0.16%| unknown
 80.9s|     1 |     0 |  1147 |     - |  2544M |   0 |  11k|  11k|  23k|  96 | 15 |   0 |   0 |-3.422004e+08 |-3.427360e+08 |   0.16%| unknown
 time | node  | left  |LP iter|LP it/n|mem/heur|mdpt |vars |cons |rows |cuts |sepa|confs|strbr|  dualbound   | primalbound  |  gap   | compl. 
 82.7s|     1 |     0 |  1165 |     - |  2546M |   0 |  11k|  11k|  23k| 105 | 16 |   0 |   0 |-3.422018e+08 |-3.427360e+08 |   0.16%| unknown
 84.4s|     1 |     0 |  1200 |     - |  2549M |   0 |  11k|  11k|  23k| 121 | 17 |   0 |   0 |-3.422041e+08 |-3.427360e+08 |   0.16%| unknown
 86.2s|     1 |     0 |  1238 |     - |  2556M |   0 |  11k|  11k|  23k| 143 | 18 |   0 |   0 |-3.422077e+08 |-3.427360e+08 |   0.15%| unknown
 88.1s|     1 |     0 |  1273 |     - |  2559M |   0 |  11k|  11k|  23k| 165 | 19 |   0 |   0 |-3.422104e+08 |-3.427360e+08 |   0.15%| unknown
 90.1s|     1 |     0 |  1306 |     - |  2561M |   0 |  11k|  11k|  23k| 181 | 20 |   0 |   0 |-3.422128e+08 |-3.427360e+08 |   0.15%| unknown
 91.8s|     1 |     0 |  1324 |     - |  2564M |   0 |  11k|  11k|  23k| 186 | 21 |   0 |   0 |-3.422133e+08 |-3.427360e+08 |   0.15%| unknown
  107s|     1 |     2 | 15956 |     - |  2599M |   0 |  11k|  11k|  23k| 186 | 23 |  14 |  20 |-3.423204e+08 |-3.427360e+08 |   0.12%| unknown

SCIP Status        : problem is solved [optimal solution found]
Solving Time (sec) : 113.09
Solving Nodes      : 4
Primal Bound       : -3.42735991348253e+08 (4 solutions)
Dual Bound         : -3.42735991348253e+08
Gap                : 0.00 %
Solve Status: optimal
Solve Time: 114.11 seconds
